WARNING: for repeatability, setting FPU to use double precision
Reading from standard input... Use '--help' for help.
============================[ Problem Statistics ]=============================
|                                                                             |
|  Number of variables:          4096                                         |
|  Number of clauses:           30419                                         |
|  Parse time:                   0.01 s                                       |
|  Eliminated clauses:           0.01 Mb                                      |
|  Simplification time:          0.01 s                                       |
|                                                                             |
LBD Based Clause Deletion : 1
Rapid Deletion : 1
Almost Conflict : 1
Anti Exploration : 1
============================[ Search Statistics ]==============================
| Conflicts |          ORIGINAL         |          LEARNT          | Progress |
|           |    Vars  Clauses Literals |    Limit  Clauses Lit/Cl |          |
===============================================================================
|       100 |     743     4502    13658 |     2000      100     60 | 63.208 % |
===============================================================================
restarts              : 3
conflicts             : 209            (11151 /sec)
decisions             : 606            (0.00 % random) (32332 /sec)
propagations          : 17574          (937630 /sec)
conflict literals     : 12579          (7.37 % deleted)
actual reward         : 0.222780
Memory used           : 9.00 MB
CPU time              : 0.018743 s

SATISFIABLE
